p tw 63 106
5 13
5 17
2 20
2 10
4 11
4 63
4 20
4 18
4 14
10 12
42 45
24 25
24 29
24 32
24 36
25 38
25 35
25 30
25 62
52 54
52 59
14 62
14 61
46 50
46 58
46 60
46 59
29 30
29 37
1 15
1 19
1 5
1 14
1 12
1 8
6 19
6 18
21 40
21 31
21 25
21 27
21 61
28 39
28 35
53 56
53 61
13 19
13 17
41 50
41 49
41 42
41 60
41 55
45 51
45 59
45 63
45 49
45 53
17 20
32 37
32 39
32 34
22 23
22 38
22 34
22 31
22 25
22 33
22 63
44 51
44 54
44 57
59 60
27 39
12 15
49 53
49 54
49 55
49 62
7 11
7 15
7 10
3 13
3 19
3 9
48 49
50 52
16 19
11 19
43 60
43 53
43 48
26 38
26 28
23 39
8 17
8 20
36 37
30 33
30 34
30 39
30 35
51 56
51 55
47 50
47 54
